language ESSENCE' 1.0
$ Minion SolverNodes: 21
$ Minion SolverTotalTime: 0.051211
$ Minion SolverTimeOut: 0
$ Savile Row TotalTime: 0.505
letting cells be [[1, 2], 
[1, 1], 
[2, 1], 
[3, 1], 
[3, 2], 
[3, 3], 
[3, 4], 
[3, 5], 
[2, 5], 
[1, 5], 
[1, 4], 
[1, 3], 
[2, 3]]
